c Generated map
c Size: 8 * 8, weights in range: 1 to 10, walls: True, with ratio 0.05
c dim 5 of 9
c
p sp 64 103
c graph contains 64 nodes and 103 arcs
c
a 1 9 3
a 9 1 3
a 4 12 1
a 12 4 1
a 4 5 5
a 5 4 5
a 5 13 1
a 13 5 1
a 5 6 7
a 6 5 7
a 6 14 2
a 14 6 2
a 6 7 4
a 7 6 4
a 7 15 4
a 15 7 4
a 7 8 8
a 8 7 8
a 8 16 9
a 16 8 9
a 9 17 9
a 17 9 9
a 9 10 7
a 10 9 7
a 10 18 10
a 18 10 10
a 10 11 9
a 11 10 9
a 11 19 3
a 19 11 3
a 11 12 5
a 12 11 5
a 12 20 1
a 20 12 1
a 12 13 1
a 13 12 1
a 13 21 3
a 21 13 3
a 13 14 9
a 14 13 9
a 14 22 8
a 22 14 8
a 14 15 7
a 15 14 7
a 15 23 2
a 23 15 2
a 15 16 9
a 16 15 9
a 16 24 10
a 24 16 10
a 17 25 2
a 25 17 2
a 17 18 6
a 18 17 6
a 18 26 10
a 26 18 10
a 18 19 8
a 19 18 8
a 19 27 8
a 27 19 8
a 19 20 7
a 20 19 7
a 20 21 7
a 21 20 7
a 21 29 10
a 29 21 10
a 21 22 4
a 22 21 4
a 22 30 5
a 30 22 5
a 22 23 6
a 23 22 6
a 23 31 10
a 31 23 10
a 23 24 5
a 24 23 5
a 24 32 1
a 32 24 1
a 25 33 3
a 33 25 3
a 25 26 3
a 26 25 3
a 26 34 4
a 34 26 4
a 26 27 8
a 27 26 8
a 27 35 2
a 35 27 2
a 29 37 10
a 37 29 10
a 29 30 1
a 30 29 1
a 30 38 2
a 38 30 2
a 30 31 8
a 31 30 8
a 31 39 3
a 39 31 3
a 31 32 4
a 32 31 4
a 32 40 10
a 40 32 10
a 33 41 1
a 41 33 1
a 33 34 1
a 34 33 1
a 34 42 2
a 42 34 2
a 34 35 1
a 35 34 1
a 35 43 6
a 43 35 6
a 35 36 8
a 36 35 8
a 36 44 6
a 44 36 6
a 36 37 10
a 37 36 10
a 37 45 5
a 45 37 5
a 37 38 6
a 38 37 6
a 38 46 2
a 46 38 2
a 38 39 5
a 39 38 5
a 39 47 7
a 47 39 7
a 39 40 6
a 40 39 6
a 40 48 1
a 48 40 1
a 41 49 4
a 49 41 4
a 41 42 7
a 42 41 7
a 42 50 8
a 50 42 8
a 42 43 10
a 43 42 10
a 43 51 6
a 51 43 6
a 43 44 9
a 44 43 9
a 44 52 9
a 52 44 9
a 44 45 8
a 45 44 8
a 45 53 8
a 53 45 8
a 45 46 9
a 46 45 9
a 46 54 9
a 54 46 9
a 46 47 1
a 47 46 1
a 47 55 4
a 55 47 4
a 47 48 6
a 48 47 6
a 48 56 9
a 56 48 9
a 49 57 9
a 57 49 9
a 49 50 6
a 50 49 6
a 50 58 10
a 58 50 10
a 50 51 5
a 51 50 5
a 51 59 2
a 59 51 2
a 51 52 4
a 52 51 4
a 52 60 10
a 60 52 10
a 52 53 4
a 53 52 4
a 53 61 8
a 61 53 8
a 53 54 4
a 54 53 4
a 54 62 4
a 62 54 4
a 54 55 8
a 55 54 8
a 55 63 8
a 63 55 8
a 55 56 2
a 56 55 2
a 56 64 10
a 64 56 10
a 57 58 3
a 58 57 3
a 58 59 3
a 59 58 3
a 59 60 1
a 60 59 1
a 60 61 3
a 61 60 3
a 61 62 2
a 62 61 2
a 62 63 2
a 63 62 2
a 63 64 1
a 64 63 1
